NAME : explosion
TYPE : TSP
DIMENSION : 50
EDGE_WEIGHT_TYPE : EUC_2D
NODE_COORD_SECTION
1 287629 589716
2 937059 765585
3 21613 974040
4 138624 87502
5 938969 826667
6 531587 997448
7 167273 18768
8 855450 622962
9 677443 821282
10 252535 71468
11 399687 338741
12 262570 547046
13 185757 256230
14 854299 879749
15 298164 268721
16 275608 118912
17 365516 379701
18 299559 17632
19 14328 216792
20 332329 219223
21 115941 652512
22 998315 213837
23 195997 438482
24 734093 866145
25 875259 749389
26 806912 671476
27 456053 76234
28 770574 737868
29 214998 44274
30 892 233823
31 270660 441499
32 823439 765911
33 625483 198310
34 303642 683910
35 362824 393375
36 970692 526187
37 394492 95287
38 36730 472458
39 546142 252138
40 153441 568158
41 312697 973916
42 987650 747609
43 241125 471179
44 535960 318631
45 323504 548032
46 164441 535170
47 277960 15145
48 956556 604452
49 588746 590883
50 823092 693031
EOF
